benchmark/results/graph__10-1000-0.10-04_2/graph__10-1000-0.10-04_2_QuintonOs_Benders_primal_sub.lp
\ This file has been generated by DOcplex
\ ENCODING=ISO-8859-1
\Problem name: Quinton Bounded Benders_primal_sub

Maximize
 obj: tau
Subject To
 c1: tau <= 0.001287001287
 c2: y_a0_proc_0 + y_a0_proc_1 + y_a0_proc_2 - tau = 0
 c3: y_a0_proc_0 <= 0
 c4: y_a0_proc_1 <= 0
 c5: y_a0_proc_2 <= 1
 c6: tau <= 0.000972762646
 c7: y_a1_proc_0 + y_a1_proc_1 + y_a1_proc_3 - tau = 0
 c8: y_a1_proc_0 <= 0
 c9: y_a1_proc_1 <= 0
 c10: y_a1_proc_3 <= 1
 c11: tau <= 0.002463054187
 c12: y_a2_proc_0 + y_a2_proc_1 + y_a2_proc_2 + y_a2_proc_3 - tau = 0
 c13: y_a2_proc_0 <= 0
 c14: y_a2_proc_1 <= 0
 c15: y_a2_proc_2 <= 0
 c16: y_a2_proc_3 <= 1
 c17: tau <= 0.001071811361
 c18: y_a3_proc_0 + y_a3_proc_1 - tau = 0
 c19: y_a3_proc_0 <= 0
 c20: y_a3_proc_1 <= 1
 c21: tau <= 0.001154734411
 c22: y_a4_proc_0 + y_a4_proc_1 + y_a4_proc_2 + y_a4_proc_3 - tau = 0
 c23: y_a4_proc_0 <= 0
 c24: y_a4_proc_1 <= 0
 c25: y_a4_proc_2 <= 1
 c26: y_a4_proc_3 <= 0
 c27: tau <= 0.000920810313
 c28: y_a5_proc_0 + y_a5_proc_1 + y_a5_proc_2 + y_a5_proc_3 - tau = 0
 c29: y_a5_proc_0 <= 1
 c30: y_a5_proc_1 <= 0
 c31: y_a5_proc_2 <= 0
 c32: y_a5_proc_3 <= 0
 c33: tau <= 0.001639344262
 c34: y_a6_proc_0 + y_a6_proc_1 + y_a6_proc_2 + y_a6_proc_3 - tau = 0
 c35: y_a6_proc_0 <= 1
 c36: y_a6_proc_1 <= 0
 c37: y_a6_proc_2 <= 0
 c38: y_a6_proc_3 <= 0
 c39: tau <= 0.001009081736
 c40: y_a7_proc_0 + y_a7_proc_1 + y_a7_proc_2 - tau = 0
 c41: y_a7_proc_0 <= 0
 c42: y_a7_proc_1 <= 1
 c43: y_a7_proc_2 <= 0
 c44: tau <= 0.003984063745
 c45: y_a8_proc_0 + y_a8_proc_1 + y_a8_proc_2 + y_a8_proc_3 - tau = 0
 c46: y_a8_proc_0 <= 0
 c47: y_a8_proc_1 <= 1
 c48: y_a8_proc_2 <= 0
 c49: y_a8_proc_3 <= 0
 c50: tau <= 0.001371742112
 c51: y_a9_proc_3 - tau = 0
 c52: y_a9_proc_3 <= 1
 c53: u_a1 - u_a0 - 516 y_a0_proc_0 - 417 y_a0_proc_1 - 777 y_a0_proc_2 >= -2
 c54: u_a1 - u_a2 - 894 y_a2_proc_0 - 1076 y_a2_proc_1 - 1092 y_a2_proc_2
      - 406 y_a2_proc_3 >= 0
 c55: u_a3 - u_a2 - 894 y_a2_proc_0 - 1076 y_a2_proc_1 - 1092 y_a2_proc_2
      - 406 y_a2_proc_3 >= 0
 c56: u_a0 - u_a4 - 890 y_a4_proc_0 - 1165 y_a4_proc_1 - 866 y_a4_proc_2
      - 550 y_a4_proc_3 >= 0
 c57: u_a5 - u_a3 - 1244 y_a3_proc_0 - 933 y_a3_proc_1 >= 0
 c58: u_a6 - u_a1 - 1041 y_a1_proc_0 - 1037 y_a1_proc_1 - 1028 y_a1_proc_3 >= 0
 c59: u_a7 - u_a4 - 890 y_a4_proc_0 - 1165 y_a4_proc_1 - 866 y_a4_proc_2
      - 550 y_a4_proc_3 >= -1
 c60: u_a8 - u_a7 - 503 y_a7_proc_0 - 991 y_a7_proc_1 - 1245 y_a7_proc_2 >= 0
 c61: u_a9 - u_a6 - 610 y_a6_proc_0 - 745 y_a6_proc_1 - 1281 y_a6_proc_2
      - 925 y_a6_proc_3 >= 0
 c62: u_a4 - u_a8 - 568 y_a8_proc_0 - 251 y_a8_proc_1 - 541 y_a8_proc_2
      - 1156 y_a8_proc_3 >= 0
 c63: u_a4 - u_a5 - 1086 y_a5_proc_0 - 719 y_a5_proc_1 - 848 y_a5_proc_2
      - 709 y_a5_proc_3 >= -1
 c64: u_a6 - u_a7 - 503 y_a7_proc_0 - 991 y_a7_proc_1 - 1245 y_a7_proc_2 >= 0
 c65: u_a3 - u_a6 - 610 y_a6_proc_0 - 745 y_a6_proc_1 - 1281 y_a6_proc_2
      - 925 y_a6_proc_3 >= 0
 c66: u_a2 - u_a8 - 568 y_a8_proc_0 - 251 y_a8_proc_1 - 541 y_a8_proc_2
      - 1156 y_a8_proc_3 >= -1
 c67: u_a9 - u_a0 - 516 y_a0_proc_0 - 417 y_a0_proc_1 - 777 y_a0_proc_2 >= 0
 c68: u_a2 - u_a3 - 1244 y_a3_proc_0 - 933 y_a3_proc_1 >= -1
 c69: - 568 y_a8_proc_0 - 251 y_a8_proc_1 - 541 y_a8_proc_2 - 1156 y_a8_proc_3
       >= -1
 c70: u_a1 - u_a0 - 516 y_a0_proc_0 >= -2576
 c71: u_a1 - u_a0 - 417 y_a0_proc_1 >= -2576
 c72: u_a0 - u_a1 - 1041 y_a1_proc_0 >= -2549
 c73: u_a0 - u_a1 - 1037 y_a1_proc_1 >= -2549
 c74: u_a2 - u_a0 - 777 y_a0_proc_2 >= -1295
 c75: u_a2 - u_a0 - 516 y_a0_proc_0 >= -2576
 c76: u_a2 - u_a0 - 417 y_a0_proc_1 >= -2576
 c77: u_a0 - u_a2 - 1092 y_a2_proc_2 >= -1268
 c78: u_a0 - u_a2 - 894 y_a2_proc_0 >= -2549
 c79: u_a0 - u_a2 - 1076 y_a2_proc_1 >= -2549
 c80: u_a3 - u_a0 - 516 y_a0_proc_0 >= -2549
 c81: u_a3 - u_a0 - 417 y_a0_proc_1 >= -1268
 c82: u_a0 - u_a3 - 1244 y_a3_proc_0 >= -2576
 c83: u_a0 - u_a3 - 933 y_a3_proc_1 >= -1295
 c84: u_a4 - u_a0 - 777 y_a0_proc_2 >= -1
 c85: u_a4 - u_a0 - 516 y_a0_proc_0 >= -2563
 c86: u_a4 - u_a0 - 417 y_a0_proc_1 >= -2563
 c87: u_a0 - u_a4 - 866 y_a4_proc_2 >= 0
 c88: u_a0 - u_a4 - 890 y_a4_proc_0 >= -2562
 c89: u_a0 - u_a4 - 1165 y_a4_proc_1 >= -2562
 c90: u_a5 - u_a0 - 777 y_a0_proc_2 >= -1268
 c91: u_a5 - u_a0 - 516 y_a0_proc_0 >= -1268
 c92: u_a5 - u_a0 - 417 y_a0_proc_1 >= -2549
 c93: u_a0 - u_a5 - 848 y_a5_proc_2 >= -1295
 c94: u_a0 - u_a5 - 1086 y_a5_proc_0 >= -1295
 c95: u_a0 - u_a5 - 719 y_a5_proc_1 >= -2576
 c96: u_a6 - u_a0 - 777 y_a0_proc_2 >= -1295
 c97: u_a6 - u_a0 - 516 y_a0_proc_0 >= -1295
 c98: u_a6 - u_a0 - 417 y_a0_proc_1 >= -2576
 c99: u_a0 - u_a6 - 1281 y_a6_proc_2 >= -1268
 c100: u_a0 - u_a6 - 610 y_a6_proc_0 >= -1268
 c101: u_a0 - u_a6 - 745 y_a6_proc_1 >= -2549
 c102: u_a7 - u_a0 - 777 y_a0_proc_2 >= -1268
 c103: u_a7 - u_a0 - 516 y_a0_proc_0 >= -2549
 c104: u_a7 - u_a0 - 417 y_a0_proc_1 >= -1268
 c105: u_a0 - u_a7 - 1245 y_a7_proc_2 >= -1295
 c106: u_a0 - u_a7 - 503 y_a7_proc_0 >= -2576
 c107: u_a0 - u_a7 - 991 y_a7_proc_1 >= -1295
 c108: u_a8 - u_a0 - 777 y_a0_proc_2 >= -1295
 c109: u_a8 - u_a0 - 516 y_a0_proc_0 >= -2576
 c110: u_a8 - u_a0 - 417 y_a0_proc_1 >= -1295
 c111: u_a0 - u_a8 - 541 y_a8_proc_2 >= -1268
 c112: u_a0 - u_a8 - 568 y_a8_proc_0 >= -2549
 c113: u_a0 - u_a8 - 251 y_a8_proc_1 >= -1268
 c114: u_a2 - u_a1 - 1028 y_a1_proc_3 >= -1
 c115: u_a2 - u_a1 - 1041 y_a1_proc_0 >= -2563
 c116: u_a2 - u_a1 - 1037 y_a1_proc_1 >= -2563
 c117: u_a1 - u_a2 - 406 y_a2_proc_3 >= 0
 c118: u_a1 - u_a2 - 894 y_a2_proc_0 >= -2562
 c119: u_a1 - u_a2 - 1076 y_a2_proc_1 >= -2562
 c120: u_a3 - u_a1 - 1041 y_a1_proc_0 >= -2576
 c121: u_a3 - u_a1 - 1037 y_a1_proc_1 >= -1295
 c122: u_a1 - u_a3 - 1244 y_a3_proc_0 >= -2549
 c123: u_a1 - u_a3 - 933 y_a3_proc_1 >= -1268
 c124: u_a4 - u_a1 - 1028 y_a1_proc_3 >= -1268
 c125: u_a4 - u_a1 - 1041 y_a1_proc_0 >= -2549
 c126: u_a4 - u_a1 - 1037 y_a1_proc_1 >= -2549
 c127: u_a1 - u_a4 - 550 y_a4_proc_3 >= -1295
 c128: u_a1 - u_a4 - 890 y_a4_proc_0 >= -2576
 c129: u_a1 - u_a4 - 1165 y_a4_proc_1 >= -2576
 c130: u_a5 - u_a1 - 1028 y_a1_proc_3 >= -1295
 c131: u_a5 - u_a1 - 1041 y_a1_proc_0 >= -1295
 c132: u_a5 - u_a1 - 1037 y_a1_proc_1 >= -2576
 c133: u_a1 - u_a5 - 709 y_a5_proc_3 >= -1268
 c134: u_a1 - u_a5 - 1086 y_a5_proc_0 >= -1268
 c135: u_a1 - u_a5 - 719 y_a5_proc_1 >= -2549
 c136: u_a6 - u_a1 - 1028 y_a1_proc_3 >= -1295
 c137: u_a6 - u_a1 - 1041 y_a1_proc_0 >= -1295
 c138: u_a6 - u_a1 - 1037 y_a1_proc_1 >= -2576
 c139: u_a1 - u_a6 - 925 y_a6_proc_3 >= -1268
 c140: u_a1 - u_a6 - 610 y_a6_proc_0 >= -1268
 c141: u_a1 - u_a6 - 745 y_a6_proc_1 >= -2549
 c142: u_a7 - u_a1 - 1041 y_a1_proc_0 >= -2576
 c143: u_a7 - u_a1 - 1037 y_a1_proc_1 >= -1295
 c144: u_a1 - u_a7 - 503 y_a7_proc_0 >= -2549
 c145: u_a1 - u_a7 - 991 y_a7_proc_1 >= -1268
 c146: u_a8 - u_a1 - 1028 y_a1_proc_3 >= -1295
 c147: u_a8 - u_a1 - 1041 y_a1_proc_0 >= -2576
 c148: u_a8 - u_a1 - 1037 y_a1_proc_1 >= -1295
 c149: u_a1 - u_a8 - 1156 y_a8_proc_3 >= -1268
 c150: u_a1 - u_a8 - 568 y_a8_proc_0 >= -2549
 c151: u_a1 - u_a8 - 251 y_a8_proc_1 >= -1268
 c152: u_a9 - u_a1 - 1028 y_a1_proc_3 >= 13
 c153: u_a1 - u_a9 - 729 y_a9_proc_3 >= -14
 c154: u_a3 - u_a2 - 894 y_a2_proc_0 >= -2576
 c155: u_a3 - u_a2 - 1076 y_a2_proc_1 >= -1295
 c156: u_a2 - u_a3 - 1244 y_a3_proc_0 >= -2549
 c157: u_a2 - u_a3 - 933 y_a3_proc_1 >= -1268
 c158: u_a4 - u_a2 - 1092 y_a2_proc_2 >= -1295
 c159: u_a4 - u_a2 - 406 y_a2_proc_3 >= -1295
 c160: u_a4 - u_a2 - 894 y_a2_proc_0 >= -2576
 c161: u_a4 - u_a2 - 1076 y_a2_proc_1 >= -2576
 c162: u_a2 - u_a4 - 866 y_a4_proc_2 >= -1268
 c163: u_a2 - u_a4 - 550 y_a4_proc_3 >= -1268
 c164: u_a2 - u_a4 - 890 y_a4_proc_0 >= -2549
 c165: u_a2 - u_a4 - 1165 y_a4_proc_1 >= -2549
 c166: u_a5 - u_a2 - 1092 y_a2_proc_2 >= -2549
 c167: u_a5 - u_a2 - 406 y_a2_proc_3 >= -1268
 c168: u_a5 - u_a2 - 894 y_a2_proc_0 >= -1268
 c169: u_a5 - u_a2 - 1076 y_a2_proc_1 >= -2549
 c170: u_a2 - u_a5 - 848 y_a5_proc_2 >= -2576
 c171: u_a2 - u_a5 - 709 y_a5_proc_3 >= -1295
 c172: u_a2 - u_a5 - 1086 y_a5_proc_0 >= -1295
 c173: u_a2 - u_a5 - 719 y_a5_proc_1 >= -2576
 c174: u_a6 - u_a2 - 1092 y_a2_proc_2 >= -2576
 c175: u_a6 - u_a2 - 406 y_a2_proc_3 >= -1295
 c176: u_a6 - u_a2 - 894 y_a2_proc_0 >= -1295
 c177: u_a6 - u_a2 - 1076 y_a2_proc_1 >= -2576
 c178: u_a2 - u_a6 - 1281 y_a6_proc_2 >= -2549
 c179: u_a2 - u_a6 - 925 y_a6_proc_3 >= -1268
 c180: u_a2 - u_a6 - 610 y_a6_proc_0 >= -1268
 c181: u_a2 - u_a6 - 745 y_a6_proc_1 >= -2549
 c182: u_a7 - u_a2 - 1092 y_a2_proc_2 >= -2576
 c183: u_a7 - u_a2 - 894 y_a2_proc_0 >= -2576
 c184: u_a7 - u_a2 - 1076 y_a2_proc_1 >= -1295
 c185: u_a2 - u_a7 - 1245 y_a7_proc_2 >= -2549
 c186: u_a2 - u_a7 - 503 y_a7_proc_0 >= -2549
 c187: u_a2 - u_a7 - 991 y_a7_proc_1 >= -1268
 c188: u_a8 - u_a2 - 1092 y_a2_proc_2 >= -2576
 c189: u_a8 - u_a2 - 406 y_a2_proc_3 >= -1295
 c190: u_a8 - u_a2 - 894 y_a2_proc_0 >= -2576
 c191: u_a8 - u_a2 - 1076 y_a2_proc_1 >= -1295
 c192: u_a2 - u_a8 - 541 y_a8_proc_2 >= -2549
 c193: u_a2 - u_a8 - 1156 y_a8_proc_3 >= -1268
 c194: u_a2 - u_a8 - 568 y_a8_proc_0 >= -2549
 c195: u_a2 - u_a8 - 251 y_a8_proc_1 >= -1268
 c196: u_a9 - u_a2 - 406 y_a2_proc_3 >= 13
 c197: u_a2 - u_a9 - 729 y_a9_proc_3 >= -14
 c198: u_a4 - u_a3 - 1244 y_a3_proc_0 >= -2576
 c199: u_a4 - u_a3 - 933 y_a3_proc_1 >= -1295
 c200: u_a3 - u_a4 - 890 y_a4_proc_0 >= -2549
 c201: u_a3 - u_a4 - 1165 y_a4_proc_1 >= -1268
 c202: u_a5 - u_a3 - 1244 y_a3_proc_0 >= -1295
 c203: u_a5 - u_a3 - 933 y_a3_proc_1 >= -1295
 c204: u_a3 - u_a5 - 1086 y_a5_proc_0 >= -1268
 c205: u_a3 - u_a5 - 719 y_a5_proc_1 >= -1268
 c206: u_a6 - u_a3 - 1244 y_a3_proc_0 >= -1295
 c207: u_a6 - u_a3 - 933 y_a3_proc_1 >= -1295
 c208: u_a3 - u_a6 - 610 y_a6_proc_0 >= -1268
 c209: u_a3 - u_a6 - 745 y_a6_proc_1 >= -1268
 c210: u_a7 - u_a3 - 1244 y_a3_proc_0 >= -2563
 c211: u_a7 - u_a3 - 933 y_a3_proc_1 >= -1
 c212: u_a3 - u_a7 - 503 y_a7_proc_0 >= -2562
 c213: u_a3 - u_a7 - 991 y_a7_proc_1 >= 0
 c214: u_a8 - u_a3 - 1244 y_a3_proc_0 >= -2563
 c215: u_a8 - u_a3 - 933 y_a3_proc_1 >= -1
 c216: u_a3 - u_a8 - 568 y_a8_proc_0 >= -2562
 c217: u_a3 - u_a8 - 251 y_a8_proc_1 >= 0
 c218: u_a5 - u_a4 - 866 y_a4_proc_2 >= -1295
 c219: u_a5 - u_a4 - 550 y_a4_proc_3 >= -2576
 c220: u_a5 - u_a4 - 890 y_a4_proc_0 >= -1295
 c221: u_a5 - u_a4 - 1165 y_a4_proc_1 >= -2576
 c222: u_a4 - u_a5 - 848 y_a5_proc_2 >= -1268
 c223: u_a4 - u_a5 - 709 y_a5_proc_3 >= -2549
 c224: u_a4 - u_a5 - 1086 y_a5_proc_0 >= -1268
 c225: u_a4 - u_a5 - 719 y_a5_proc_1 >= -2549
 c226: u_a6 - u_a4 - 866 y_a4_proc_2 >= -1268
 c227: u_a6 - u_a4 - 550 y_a4_proc_3 >= -2549
 c228: u_a6 - u_a4 - 890 y_a4_proc_0 >= -1268
 c229: u_a6 - u_a4 - 1165 y_a4_proc_1 >= -2549
 c230: u_a4 - u_a6 - 1281 y_a6_proc_2 >= -1295
 c231: u_a4 - u_a6 - 925 y_a6_proc_3 >= -2576
 c232: u_a4 - u_a6 - 610 y_a6_proc_0 >= -1295
 c233: u_a4 - u_a6 - 745 y_a6_proc_1 >= -2576
 c234: u_a7 - u_a4 - 866 y_a4_proc_2 >= -1295
 c235: u_a7 - u_a4 - 890 y_a4_proc_0 >= -2576
 c236: u_a7 - u_a4 - 1165 y_a4_proc_1 >= -1295
 c237: u_a4 - u_a7 - 1245 y_a7_proc_2 >= -1268
 c238: u_a4 - u_a7 - 503 y_a7_proc_0 >= -2549
 c239: u_a4 - u_a7 - 991 y_a7_proc_1 >= -1268
 c240: u_a8 - u_a4 - 866 y_a4_proc_2 >= -1295
 c241: u_a8 - u_a4 - 550 y_a4_proc_3 >= -2576
 c242: u_a8 - u_a4 - 890 y_a4_proc_0 >= -2576
 c243: u_a8 - u_a4 - 1165 y_a4_proc_1 >= -1295
 c244: u_a4 - u_a8 - 541 y_a8_proc_2 >= -1268
 c245: u_a4 - u_a8 - 1156 y_a8_proc_3 >= -2549
 c246: u_a4 - u_a8 - 568 y_a8_proc_0 >= -2549
 c247: u_a4 - u_a8 - 251 y_a8_proc_1 >= -1268
 c248: u_a9 - u_a4 - 550 y_a4_proc_3 >= -1268
 c249: u_a4 - u_a9 - 729 y_a9_proc_3 >= -1295
 c250: u_a6 - u_a5 - 848 y_a5_proc_2 >= -2563
 c251: u_a6 - u_a5 - 709 y_a5_proc_3 >= -2563
 c252: u_a6 - u_a5 - 1086 y_a5_proc_0 >= -1
 c253: u_a6 - u_a5 - 719 y_a5_proc_1 >= -2563
 c254: u_a5 - u_a6 - 1281 y_a6_proc_2 >= -2562
 c255: u_a5 - u_a6 - 925 y_a6_proc_3 >= -2562
 c256: u_a5 - u_a6 - 610 y_a6_proc_0 >= 0
 c257: u_a5 - u_a6 - 745 y_a6_proc_1 >= -2562
 c258: u_a7 - u_a5 - 848 y_a5_proc_2 >= -2576
 c259: u_a7 - u_a5 - 1086 y_a5_proc_0 >= -1295
 c260: u_a7 - u_a5 - 719 y_a5_proc_1 >= -1295
 c261: u_a5 - u_a7 - 1245 y_a7_proc_2 >= -2549
 c262: u_a5 - u_a7 - 503 y_a7_proc_0 >= -1268
 c263: u_a5 - u_a7 - 991 y_a7_proc_1 >= -1268
 c264: u_a8 - u_a5 - 848 y_a5_proc_2 >= -2576
 c265: u_a8 - u_a5 - 709 y_a5_proc_3 >= -2576
 c266: u_a8 - u_a5 - 1086 y_a5_proc_0 >= -1295
 c267: u_a8 - u_a5 - 719 y_a5_proc_1 >= -1295
 c268: u_a5 - u_a8 - 541 y_a8_proc_2 >= -2549
 c269: u_a5 - u_a8 - 1156 y_a8_proc_3 >= -2549
 c270: u_a5 - u_a8 - 568 y_a8_proc_0 >= -1268
 c271: u_a5 - u_a8 - 251 y_a8_proc_1 >= -1268
 c272: u_a9 - u_a5 - 709 y_a5_proc_3 >= -1295
 c273: u_a5 - u_a9 - 729 y_a9_proc_3 >= -1268
 c274: u_a7 - u_a6 - 1281 y_a6_proc_2 >= -2549
 c275: u_a7 - u_a6 - 610 y_a6_proc_0 >= -1268
 c276: u_a7 - u_a6 - 745 y_a6_proc_1 >= -1268
 c277: u_a6 - u_a7 - 1245 y_a7_proc_2 >= -2576
 c278: u_a6 - u_a7 - 503 y_a7_proc_0 >= -1295
 c279: u_a6 - u_a7 - 991 y_a7_proc_1 >= -1295
 c280: u_a8 - u_a6 - 1281 y_a6_proc_2 >= -2576
 c281: u_a8 - u_a6 - 925 y_a6_proc_3 >= -2576
 c282: u_a8 - u_a6 - 610 y_a6_proc_0 >= -1295
 c283: u_a8 - u_a6 - 745 y_a6_proc_1 >= -1295
 c284: u_a6 - u_a8 - 541 y_a8_proc_2 >= -2549
 c285: u_a6 - u_a8 - 1156 y_a8_proc_3 >= -2549
 c286: u_a6 - u_a8 - 568 y_a8_proc_0 >= -1268
 c287: u_a6 - u_a8 - 251 y_a8_proc_1 >= -1268
 c288: u_a9 - u_a6 - 925 y_a6_proc_3 >= -1295
 c289: u_a6 - u_a9 - 729 y_a9_proc_3 >= -1268
 c290: u_a8 - u_a7 - 1245 y_a7_proc_2 >= -2562
 c291: u_a8 - u_a7 - 503 y_a7_proc_0 >= -2562
 c292: u_a8 - u_a7 - 991 y_a7_proc_1 >= 0
 c293: u_a7 - u_a8 - 541 y_a8_proc_2 >= -2563
 c294: u_a7 - u_a8 - 568 y_a8_proc_0 >= -2563
 c295: u_a7 - u_a8 - 251 y_a8_proc_1 >= -1
 c296: u_a9 - u_a8 - 1156 y_a8_proc_3 >= -1295
 c297: u_a8 - u_a9 - 729 y_a9_proc_3 >= -1268

Bounds
End
