benchmark/results/graph__10-1000-0.10-04_2/graph__10-1000-0.10-04_2_QuintonOs_Benders_primal_sub.txt
solution for: Quinton Bounded Benders_primal_sub
objective: 0.000335909
status: OPTIMAL_SOLUTION(2)
u_a0=0.773
u_a1=0.136
u_a3=0.687
u_a4=0.482
u_a5=1.117
u_a6=0.482
u_a8=0.333
u_a9=13.482
tau=0.000
y_a0_proc_2=0.000
y_a1_proc_3=0.000
y_a2_proc_3=0.000
y_a3_proc_1=0.000
y_a4_proc_2=0.000
y_a5_proc_0=0.000
y_a6_proc_0=0.000
y_a7_proc_1=0.000
y_a8_proc_1=0.000
y_a9_proc_3=0.000
